<number of tasks>
32

<cycle time>
2357

<task times>
1 458
2 276
3 520
4 1400
5 352
6 196
7 214
8 456
9 646
10 512
11 408
12 262
13 544
14 202
15 458
16 694
17 616
18 678
19 328
20 324
21 100
22 352
23 544
24 500
25 382
26 858
27 388
28 352
29 428
30 238
31 258
32 196

<precedence relations>
1,5
2,6
3,9
4,15
5,6
6,7
6,8
6,9
7,21
8,21
9,10
9,11
10,16
11,12
12,13
13,14
13,15
14,16
14,17
15,17
16,18
17,19
18,21
19,20
20,21
21,22
21,23
21,24
22,25
23,32
24,32
25,26
26,27
27,28
28,29
29,30
30,31
31,32

<setup times forward>
1,2:178
1,3:69
1,4:61
1,5:42
2,1:178
2,3:247
2,4:117
2,5:136
2,6:279
3,1:69
3,2:247
3,4:130
3,5:111
3,6:32
3,7:60
3,8:88
3,9:163
4,1:61
4,2:117
4,3:130
4,5:19
4,6:162
4,7:70
4,8:218
4,9:33
4,10:128
4,11:262
4,12:87
4,13:16
4,14:64
4,15:291
4,16:268
4,18:106
5,2:136
5,3:111
5,4:19
5,6:143
6,3:32
6,4:162
6,7:92
6,8:56
6,9:195
7,3:60
7,4:70
7,8:148
7,9:103
7,10:58
7,11:192
7,12:17
7,13:54
7,14:134
7,15:221
7,16:198
7,17:172
7,18:36
7,19:48
7,20:131
7,21:122
8,3:88
8,4:218
8,7:148
8,9:251
8,10:90
8,11:44
8,12:131
8,13:202
8,14:282
8,15:73
8,16:50
8,17:320
8,18:112
8,19:196
8,20:279
8,21:270
9,4:33
9,7:103
9,8:251
9,10:161
9,11:295
10,4:128
10,7:58
10,8:90
10,11:134
10,12:41
10,13:112
10,14:192
10,15:163
10,16:140
10,17:230
10,19:106
10,20:189
11,4:262
11,7:192
11,8:44
11,10:134
11,12:175
12,4:87
12,7:17
12,8:131
12,10:41
12,13:71
13,4:16
13,7:54
13,8:202
13,10:112
13,14:80
13,15:275
14,4:64
14,7:134
14,8:282
14,10:192
14,15:355
14,16:332
14,17:38
15,7:221
15,8:73
15,10:163
15,14:355
15,16:23
15,17:393
15,18:185
16,4:268
16,7:198
16,8:50
16,15:23
16,17:370
16,18:162
16,19:246
16,20:329
17,7:172
17,8:320
17,10:230
17,16:370
17,18:208
17,19:124
18,4:106
18,7:36
18,8:112
18,15:185
18,17:208
18,19:84
18,20:167
18,21:158
19,7:48
19,8:196
19,10:106
19,16:246
19,18:84
19,20:83
20,7:131
20,8:279
20,10:189
20,16:329
20,18:167
20,21:9
21,22:268
21,23:11
21,24:160
22,23:257
22,24:108
22,25:75
23,22:257
23,24:149
23,25:182
23,26:275
23,27:359
23,28:64
23,29:313
23,30:115
23,31:17
23,32:53
24,22:108
24,23:149
24,25:33
24,26:126
24,27:210
24,28:85
24,29:164
24,30:34
24,31:166
24,32:202
25,23:182
25,24:33
25,26:93
26,23:275
26,24:126
26,27:84
27,23:359
27,24:210
27,28:295
28,23:64
28,24:85
28,29:249
29,23:313
29,24:164
29,30:198
30,23:115
30,24:34
30,31:132
31,23:17
31,24:166
31,32:36

<setup times backward>
1,1:438
1,2:260
1,3:507
1,4:377
2,1:616
2,2:438
2,3:685
2,4:555
2,5:574
3,1:369
3,2:191
3,3:438
3,4:308
3,5:327
3,6:470
3,7:378
3,8:526
4,1:499
4,2:321
4,3:568
4,4:438
4,5:457
4,6:600
4,7:508
4,8:656
4,9:405
4,10:566
4,11:700
4,12:525
4,13:454
4,14:374
4,16:706
4,18:544
5,1:480
5,2:302
5,3:549
5,4:419
5,5:438
6,1:337
6,2:159
6,3:406
6,4:276
6,5:295
6,6:438
7,1:429
7,2:251
7,3:498
7,4:368
7,5:387
7,6:530
7,7:438
7,8:586
7,9:335
7,10:496
7,11:630
7,12:455
7,13:384
7,14:304
7,15:659
7,16:636
7,17:266
7,18:474
7,19:390
7,20:307
8,1:281
8,2:103
8,3:350
8,4:220
8,5:239
8,6:382
8,7:290
8,8:438
8,9:187
8,10:348
8,11:482
8,12:307
8,13:236
8,14:156
8,15:511
8,16:488
8,17:118
8,18:326
8,19:242
8,20:159
9,1:532
9,2:354
9,3:601
9,4:471
9,5:490
9,6:633
9,7:541
9,8:689
9,9:438
10,1:371
10,2:193
10,3:440
10,4:310
10,5:329
10,6:472
10,7:380
10,8:528
10,9:277
10,10:438
10,11:572
10,12:397
10,13:326
10,14:246
10,15:601
10,17:208
10,19:332
10,20:249
11,1:237
11,2:59
11,3:306
11,4:176
11,5:195
11,6:338
11,7:246
11,8:394
11,9:143
11,10:304
11,11:438
12,1:412
12,2:234
12,3:481
12,4:351
12,5:370
12,6:513
12,7:421
12,8:569
12,9:318
12,10:479
12,11:613
12,12:438
13,1:483
13,2:305
13,3:552
13,4:422
13,5:441
13,6:584
13,7:492
13,8:640
13,9:389
13,10:550
13,11:684
13,12:509
13,13:438
14,1:563
14,2:385
14,3:632
14,4:502
14,5:521
14,6:664
14,7:572
14,8:720
14,9:469
14,10:630
14,11:764
14,12:589
14,13:518
14,14:438
14,15:793
15,1:208
15,2:30
15,3:277
15,4:147
15,5:166
15,6:309
15,7:217
15,8:365
15,9:114
15,10:275
15,11:409
15,12:234
15,13:163
15,14:83
15,15:438
15,16:415
15,18:253
16,1:231
16,2:53
16,3:300
16,4:170
16,5:189
16,6:332
16,7:240
16,8:388
16,9:137
16,10:298
16,11:432
16,12:257
16,13:186
16,14:106
16,15:461
16,16:438
16,17:68
16,19:192
16,20:109
17,1:601
17,2:423
17,3:670
17,4:540
17,5:559
17,6:702
17,7:610
17,8:758
17,9:507
17,10:668
17,11:802
17,12:627
17,13:556
17,14:476
17,15:831
17,16:808
17,17:438
17,18:646
18,1:393
18,2:215
18,3:462
18,4:332
18,5:351
18,6:494
18,7:402
18,8:550
18,9:299
18,10:460
18,11:594
18,12:419
18,13:348
18,14:268
18,15:623
18,16:600
18,17:230
18,18:438
18,19:354
18,20:271
19,1:477
19,2:299
19,3:546
19,4:416
19,5:435
19,6:578
19,7:486
19,8:634
19,9:383
19,10:544
19,11:678
19,12:503
19,13:432
19,14:352
19,15:707
19,16:684
19,17:314
19,18:522
19,19:438
20,1:560
20,2:382
20,3:629
20,4:499
20,5:518
20,6:661
20,7:569
20,8:717
20,9:466
20,10:627
20,11:761
20,12:586
20,13:515
20,14:435
20,15:790
20,16:767
20,17:397
20,18:605
20,19:521
20,20:438
21,1:551
21,2:373
21,3:620
21,4:490
21,5:509
21,6:652
21,7:560
21,8:708
21,9:457
21,10:618
21,11:752
21,12:577
21,13:506
21,14:426
21,15:781
21,16:758
21,17:388
21,18:596
21,19:512
21,20:429
21,21:438
22,1:283
22,2:105
22,3:352
22,4:222
22,5:241
22,6:384
22,7:292
22,8:440
22,9:189
22,10:350
22,11:484
22,12:309
22,13:238
22,14:158
22,15:513
22,16:490
22,17:120
22,18:328
22,19:244
22,20:161
22,21:170
22,22:438
22,23:181
22,24:330
23,1:540
23,2:362
23,3:609
23,4:479
23,5:498
23,6:641
23,7:549
23,8:697
23,9:446
23,10:607
23,11:741
23,12:566
23,13:495
23,14:415
23,15:770
23,16:747
23,17:377
23,18:585
23,19:501
23,20:418
23,21:427
23,22:695
23,23:438
23,24:587
23,25:620
23,26:713
23,27:797
23,28:502
23,29:751
23,30:553
23,31:421
24,1:391
24,2:213
24,3:460
24,4:330
24,5:349
24,6:492
24,7:400
24,8:548
24,9:297
24,10:458
24,11:592
24,12:417
24,13:346
24,14:266
24,15:621
24,16:598
24,17:228
24,18:436
24,19:352
24,20:269
24,21:278
24,22:546
24,23:289
24,24:438
24,25:471
24,26:564
24,27:648
24,28:353
24,29:602
24,30:404
24,31:272
25,1:358
25,2:180
25,3:427
25,4:297
25,5:316
25,6:459
25,7:367
25,8:515
25,9:264
25,10:425
25,11:559
25,12:384
25,13:313
25,14:233
25,15:588
25,16:565
25,17:195
25,18:403
25,19:319
25,20:236
25,21:245
25,22:513
25,23:256
25,24:405
25,25:438
26,1:265
26,2:87
26,3:334
26,4:204
26,5:223
26,6:366
26,7:274
26,8:422
26,9:171
26,10:332
26,11:466
26,12:291
26,13:220
26,14:140
26,15:495
26,16:472
26,17:102
26,18:310
26,19:226
26,20:143
26,21:152
26,22:420
26,23:163
26,24:312
26,25:345
26,26:438
27,1:181
27,2:3
27,3:250
27,4:120
27,5:139
27,6:282
27,7:190
27,8:338
27,9:87
27,10:248
27,11:382
27,12:207
27,13:136
27,14:56
27,15:411
27,16:388
27,17:18
27,18:226
27,19:142
27,20:59
27,21:68
27,22:336
27,23:79
27,24:228
27,25:261
27,26:354
27,27:438
28,1:476
28,2:298
28,3:545
28,4:415
28,5:434
28,6:577
28,7:485
28,8:633
28,9:382
28,10:543
28,11:677
28,12:502
28,13:431
28,14:351
28,15:706
28,16:683
28,17:313
28,18:521
28,19:437
28,20:354
28,21:363
28,22:631
28,23:374
28,24:523
28,25:556
28,26:649
28,27:733
28,28:438
29,1:227
29,2:49
29,3:296
29,4:166
29,5:185
29,6:328
29,7:236
29,8:384
29,9:133
29,10:294
29,11:428
29,12:253
29,13:182
29,14:102
29,15:457
29,16:434
29,17:64
29,18:272
29,19:188
29,20:105
29,21:114
29,22:382
29,23:125
29,24:274
29,25:307
29,26:400
29,27:484
29,28:189
29,29:438
30,1:425
30,2:247
30,3:494
30,4:364
30,5:383
30,6:526
30,7:434
30,8:582
30,9:331
30,10:492
30,11:626
30,12:451
30,13:380
30,14:300
30,15:655
30,16:632
30,17:262
30,18:470
30,19:386
30,20:303
30,21:312
30,22:580
30,23:323
30,24:472
30,25:505
30,26:598
30,27:682
30,28:387
30,29:636
30,30:438
31,1:557
31,2:379
31,3:626
31,4:496
31,5:515
31,6:658
31,7:566
31,8:714
31,9:463
31,10:624
31,11:758
31,12:583
31,13:512
31,14:432
31,15:787
31,16:764
31,17:394
31,18:602
31,19:518
31,20:435
31,21:444
31,22:712
31,23:455
31,24:604
31,25:637
31,26:730
31,27:814
31,28:519
31,29:768
31,30:570
31,31:438
32,1:593
32,2:415
32,3:662
32,4:532
32,5:551
32,6:694
32,7:602
32,8:750
32,9:499
32,10:660
32,11:794
32,12:619
32,13:548
32,14:468
32,15:823
32,16:800
32,17:430
32,18:638
32,19:554
32,20:471
32,21:480
32,22:748
32,23:491
32,24:640
32,25:673
32,26:766
32,27:850
32,28:555
32,29:804
32,30:606
32,31:474
32,32:438

<end>

<optimal SALBP-1 value>
7


<rand seed>
467321153

<Lower Bounds>
Lm1=6
Lms1=6
Lm2=1
Lm3=1
Lm4=7
Best=7

<Optimal Stations (Iterations: 10)>
11
